NAME : portcgen-16-21
COMMENT : portcgen N=16, seed=21
TYPE : TSP
DIMENSION : 16
EDGE_WEIGHT_TYPE : EUC_2D
NODE_COORD_SECTION
1 -168951 123441
2 -168777 238794
3 38474 228553
4 12610 168076
5 73023 -86061
6 -280580 376667
7 167061 -60160
8 -164179 170019
9 -65055 56123
10 174395 316404
11 177251 -527593
12 104218 -77937
13 221844 -620574
14 304403 -172601
15 670942 336172
16 397580 -135715
